
;this file is automatically generated: Mon Nov 02 10:43:03 CST 2020

;declarations generated

(declare-fun oclExcludes ( Int Int) Bool)
(declare-fun type_12eba657_3a48_4924_8b0e_3c9bc1d74abd_Class0 ( Int) Bool)
(declare-fun type_12eba657_3a48_4924_8b0e_3c9bc1d74abd_Class1 ( Int) Bool)
(declare-fun Cardinality ( Int) Int)
(declare-fun type_12eba657_3a48_4924_8b0e_3c9bc1d74abd_Class6 ( Int) Bool)
(declare-fun type_12eba657_3a48_4924_8b0e_3c9bc1d74abd_Class7 ( Int) Bool)
(declare-fun type_12eba657_3a48_4924_8b0e_3c9bc1d74abd_Class8 ( Int) Bool)
(declare-fun type_12eba657_3a48_4924_8b0e_3c9bc1d74abd_Class9 ( Int) Bool)
(declare-fun type_12eba657_3a48_4924_8b0e_3c9bc1d74abd_Class2 ( Int) Bool)
(declare-fun type_12eba657_3a48_4924_8b0e_3c9bc1d74abd_Class3 ( Int) Bool)
(declare-fun type_12eba657_3a48_4924_8b0e_3c9bc1d74abd_Class4 ( Int) Bool)
(declare-fun type_12eba657_3a48_4924_8b0e_3c9bc1d74abd_Class5 ( Int) Bool)
(declare-fun type_12eba657_3a48_4924_8b0e_3c9bc1d74abd_Class17 ( Int) Bool)
(declare-fun type_12eba657_3a48_4924_8b0e_3c9bc1d74abd_Class14 ( Int) Bool)
(declare-fun type_12eba657_3a48_4924_8b0e_3c9bc1d74abd_Class13 ( Int) Bool)
(declare-fun type_12eba657_3a48_4924_8b0e_3c9bc1d74abd_Class16 ( Int) Bool)
(declare-fun type_12eba657_3a48_4924_8b0e_3c9bc1d74abd_Class15 ( Int) Bool)
(declare-fun type_12eba657_3a48_4924_8b0e_3c9bc1d74abd_Class10 ( Int) Bool)
(declare-fun type_12eba657_3a48_4924_8b0e_3c9bc1d74abd_Class12 ( Int) Bool)
(declare-fun type_12eba657_3a48_4924_8b0e_3c9bc1d74abd_Class11 ( Int) Bool)
(declare-fun oclSelect ( Int Bool) Int)
(declare-fun obj_d5fdfdab_e0f1_4f12_83bc_d7282b46beb1 ( Int) Int)
(declare-fun Enum0 ( Int) Int)
(declare-fun Enum1 ( Int) Int)
(declare-fun Enum2 ( Int) Int)
(declare-fun container_ ( Int) Int)
(declare-fun oclIncludes ( Int Int) Bool)
(declare-fun ObjAt ( Int Int) Int)

;formula(s) generated
(assert (forall ((p Int)) (=> ( type_12eba657_3a48_4924_8b0e_3c9bc1d74abd_Class14 p )  (and (>= ( Enum1 ( obj_d5fdfdab_e0f1_4f12_83bc_d7282b46beb1 p )  )  0) (<= ( Enum1 ( obj_d5fdfdab_e0f1_4f12_83bc_d7282b46beb1 p )  )  5)))))
(assert (! (forall ((v Int)) (=> ( type_12eba657_3a48_4924_8b0e_3c9bc1d74abd_Class14 v )  (= ( Enum1 ( obj_d5fdfdab_e0f1_4f12_83bc_d7282b46beb1 v )  )  2))):named l0))
(assert (! (forall ((v Int)) (=> ( type_12eba657_3a48_4924_8b0e_3c9bc1d74abd_Class14 v )  (= ( Enum1 ( obj_d5fdfdab_e0f1_4f12_83bc_d7282b46beb1 v )  )  3))):named l1))
(assert (! (exists ((o Int)) ( type_12eba657_3a48_4924_8b0e_3c9bc1d74abd_Class0 ( obj_d5fdfdab_e0f1_4f12_83bc_d7282b46beb1 o )  ) ):named c0))
(assert (! (exists ((o Int)) ( type_12eba657_3a48_4924_8b0e_3c9bc1d74abd_Class1 ( obj_d5fdfdab_e0f1_4f12_83bc_d7282b46beb1 o )  ) ):named c1))
(assert (! (exists ((o Int)) (and (and ( type_12eba657_3a48_4924_8b0e_3c9bc1d74abd_Class10 ( obj_d5fdfdab_e0f1_4f12_83bc_d7282b46beb1 o )  )  ( type_12eba657_3a48_4924_8b0e_3c9bc1d74abd_Class14 ( obj_d5fdfdab_e0f1_4f12_83bc_d7282b46beb1 o )  ) ) ( type_12eba657_3a48_4924_8b0e_3c9bc1d74abd_Class16 ( obj_d5fdfdab_e0f1_4f12_83bc_d7282b46beb1 o )  ) )):named c2))
(assert (! (exists ((o Int)) ( type_12eba657_3a48_4924_8b0e_3c9bc1d74abd_Class11 ( obj_d5fdfdab_e0f1_4f12_83bc_d7282b46beb1 o )  ) ):named c3))
(assert (! (exists ((o Int)) ( type_12eba657_3a48_4924_8b0e_3c9bc1d74abd_Class12 ( obj_d5fdfdab_e0f1_4f12_83bc_d7282b46beb1 o )  ) ):named c4))
(assert (! (exists ((o Int)) ( type_12eba657_3a48_4924_8b0e_3c9bc1d74abd_Class13 ( obj_d5fdfdab_e0f1_4f12_83bc_d7282b46beb1 o )  ) ):named c5))
(assert (! (exists ((o Int)) ( type_12eba657_3a48_4924_8b0e_3c9bc1d74abd_Class14 ( obj_d5fdfdab_e0f1_4f12_83bc_d7282b46beb1 o )  ) ):named c6))
(assert (! (exists ((o Int)) ( type_12eba657_3a48_4924_8b0e_3c9bc1d74abd_Class15 ( obj_d5fdfdab_e0f1_4f12_83bc_d7282b46beb1 o )  ) ):named c7))
(assert (! (exists ((o Int)) (and ( type_12eba657_3a48_4924_8b0e_3c9bc1d74abd_Class16 ( obj_d5fdfdab_e0f1_4f12_83bc_d7282b46beb1 o )  )  ( type_12eba657_3a48_4924_8b0e_3c9bc1d74abd_Class14 ( obj_d5fdfdab_e0f1_4f12_83bc_d7282b46beb1 o )  ) )):named c8))
(assert (! (exists ((o Int)) ( type_12eba657_3a48_4924_8b0e_3c9bc1d74abd_Class17 ( obj_d5fdfdab_e0f1_4f12_83bc_d7282b46beb1 o )  ) ):named c9))
(assert (! (exists ((o Int)) ( type_12eba657_3a48_4924_8b0e_3c9bc1d74abd_Class2 ( obj_d5fdfdab_e0f1_4f12_83bc_d7282b46beb1 o )  ) ):named c10))
(assert (! (exists ((o Int)) ( type_12eba657_3a48_4924_8b0e_3c9bc1d74abd_Class3 ( obj_d5fdfdab_e0f1_4f12_83bc_d7282b46beb1 o )  ) ):named c11))
(assert (! (exists ((o Int)) ( type_12eba657_3a48_4924_8b0e_3c9bc1d74abd_Class4 ( obj_d5fdfdab_e0f1_4f12_83bc_d7282b46beb1 o )  ) ):named c12))
(assert (! (exists ((o Int)) ( type_12eba657_3a48_4924_8b0e_3c9bc1d74abd_Class5 ( obj_d5fdfdab_e0f1_4f12_83bc_d7282b46beb1 o )  ) ):named c13))
(assert (! (exists ((o Int)) ( type_12eba657_3a48_4924_8b0e_3c9bc1d74abd_Class6 ( obj_d5fdfdab_e0f1_4f12_83bc_d7282b46beb1 o )  ) ):named c14))
(assert (! (exists ((o Int)) ( type_12eba657_3a48_4924_8b0e_3c9bc1d74abd_Class7 ( obj_d5fdfdab_e0f1_4f12_83bc_d7282b46beb1 o )  ) ):named c15))
(assert (! (exists ((o Int)) ( type_12eba657_3a48_4924_8b0e_3c9bc1d74abd_Class8 ( obj_d5fdfdab_e0f1_4f12_83bc_d7282b46beb1 o )  ) ):named c16))
(assert (! (exists ((o Int)) ( type_12eba657_3a48_4924_8b0e_3c9bc1d74abd_Class9 ( obj_d5fdfdab_e0f1_4f12_83bc_d7282b46beb1 o )  ) ):named c17))

 ;end of formula 